(set-option :produce-unsat-cores true) ; enable generation of unsat cores
(set-option :produce-models true) ; enable model generation
(set-logic ALL)
(declare-sort var3432 0)
(declare-sort var54 0)
(declare-sort var2692 0)
(declare-sort var3508 0)
(declare-sort void 0)
(declare-sort Iterator 0)
(declare-sort ClassObject 0)
(declare-fun ordinal/-291641772 (var2692) Int)
(declare-fun cast-from-var3432-to-var2692 (var3432) var2692)
(declare-const null-var3432 var3432)
(declare-const var54-$SwitchMap$com$google$javascript$jscomp$parsing$parser$TokenType (Array Int Int))
(declare-const var3508-ASSIGN_RSH var3508)
(declare-const var2545 var3432) ; Statement: r0 := @parameter0: com.google.javascript.jscomp.parsing.parser.TokenType 
(assert (not (= var2545 null-var3432)))
(define-const var1123 (Array Int Int) var54-$SwitchMap$com$google$javascript$jscomp$parsing$parser$TokenType) ; Statement: $r1 = <com.google.javascript.jscomp.parsing.IRFactory$1: int[] $SwitchMap$com$google$javascript$jscomp$parsing$parser$TokenType> 
(assert true)
(define-const var3616 Int (ordinal/-291641772 (cast-from-var3432-to-var2692 var2545))) ; Statement: $i0 = virtualinvoke r0.<com.google.javascript.jscomp.parsing.parser.TokenType: int ordinal()>() 
(define-const var3048 Int (select var1123 var3616)) ; Statement: $i1 = $r1[$i0] 
 ; Statement: tableswitch($i1) {     case 3: goto $r43 = <com.google.javascript.rhino.Token: com.google.javascript.rhino.Token EXPONENT>;     case 4: goto $r42 = <com.google.javascript.rhino.Token: com.google.javascript.rhino.Token ASSIGN_EXPONENT>;     case 5: goto $r41 = <com.google.javascript.rhino.Token: com.google.javascript.rhino.Token COALESCE>;     case 6: goto $r40 = <com.google.javascript.rhino.Token: com.google.javascript.rhino.Token ASSIGN_COALESCE>;     case 7: goto $r39 = <com.google.javascript.rhino.Token: com.google.javascript.rhino.Token ASSIGN_OR>;     case 8: goto $r38 = <com.google.javascript.rhino.Token: com.google.javascript.rhino.Token ASSIGN_AND>;     case 9: goto $r44 = new java.lang.IllegalStateException;     case 10: goto $r44 = new java.lang.IllegalStateException;     case 11: goto $r44 = new java.lang.IllegalStateException;     case 12: goto $r44 = new java.lang.IllegalStateException;     case 13: goto $r44 = new java.lang.IllegalStateException;     case 14: goto $r44 = new java.lang.IllegalStateException;     case 15: goto $r44 = new java.lang.IllegalStateException;     case 16: goto $r44 = new java.lang.IllegalStateException;     case 17: goto $r44 = new java.lang.IllegalStateException;     case 18: goto $r44 = new java.lang.IllegalStateException;     case 19: goto $r44 = new java.lang.IllegalStateException;     case 20: goto $r44 = new java.lang.IllegalStateException;     case 21: goto $r37 = <com.google.javascript.rhino.Token: com.google.javascript.rhino.Token ADD>;     case 22: goto $r36 = <com.google.javascript.rhino.Token: com.google.javascript.rhino.Token SUB>;     case 23: goto $r44 = new java.lang.IllegalStateException;     case 24: goto $r44 = new java.lang.IllegalStateException;     case 25: goto $r44 = new java.lang.IllegalStateException;     case 26: goto $r35 = <com.google.javascript.rhino.Token: com.google.javascript.rhino.Token BITOR>;     case 27: goto $r34 = <com.google.javascript.rhino.Token: com.google.javascript.rhino.Token BITXOR>;     case 28: goto $r33 = <com.google.javascript.rhino.Token: com.google.javascript.rhino.Token BITAND>;     case 29: goto $r32 = <com.google.javascript.rhino.Token: com.google.javascript.rhino.Token EQ>;     case 30: goto $r31 = <com.google.javascript.rhino.Token: com.google.javascript.rhino.Token NE>;     case 31: goto $r30 = <com.google.javascript.rhino.Token: com.google.javascript.rhino.Token LT>;     case 32: goto $r29 = <com.google.javascript.rhino.Token: com.google.javascript.rhino.Token LE>;     case 33: goto $r28 = <com.google.javascript.rhino.Token: com.google.javascript.rhino.Token GT>;     case 34: goto $r27 = <com.google.javascript.rhino.Token: com.google.javascript.rhino.Token GE>;     case 35: goto $r26 = <com.google.javascript.rhino.Token: com.google.javascript.rhino.Token LSH>;     case 36: goto $r25 = <com.google.javascript.rhino.Token: com.google.javascript.rhino.Token RSH>;     case 37: goto $r24 = <com.google.javascript.rhino.Token: com.google.javascript.rhino.Token URSH>;     case 38: goto $r23 = <com.google.javascript.rhino.Token: com.google.javascript.rhino.Token MUL>;     case 39: goto $r22 = <com.google.javascript.rhino.Token: com.google.javascript.rhino.Token DIV>;     case 40: goto $r21 = <com.google.javascript.rhino.Token: com.google.javascript.rhino.Token MOD>;     case 41: goto $r20 = <com.google.javascript.rhino.Token: com.google.javascript.rhino.Token SHEQ>;     case 42: goto $r19 = <com.google.javascript.rhino.Token: com.google.javascript.rhino.Token SHNE>;     case 43: goto $r18 = <com.google.javascript.rhino.Token: com.google.javascript.rhino.Token IN>;     case 44: goto $r17 = <com.google.javascript.rhino.Token: com.google.javascript.rhino.Token INSTANCEOF>;     case 45: goto $r16 = <com.google.javascript.rhino.Token: com.google.javascript.rhino.Token COMMA>;     case 46: goto $r15 = <com.google.javascript.rhino.Token: com.google.javascript.rhino.Token ASSIGN>;     case 47: goto $r14 = <com.google.javascript.rhino.Token: com.google.javascript.rhino.Token ASSIGN_BITOR>;     case 48: goto $r13 = <com.google.javascript.rhino.Token: com.google.javascript.rhino.Token ASSIGN_BITXOR>;     case 49: goto $r12 = <com.google.javascript.rhino.Token: com.google.javascript.rhino.Token ASSIGN_BITAND>;     case 50: goto $r11 = <com.google.javascript.rhino.Token: com.google.javascript.rhino.Token ASSIGN_LSH>;     case 51: goto $r10 = <com.google.javascript.rhino.Token: com.google.javascript.rhino.Token ASSIGN_RSH>;     case 52: goto $r9 = <com.google.javascript.rhino.Token: com.google.javascript.rhino.Token ASSIGN_URSH>;     case 53: goto $r8 = <com.google.javascript.rhino.Token: com.google.javascript.rhino.Token ASSIGN_ADD>;     case 54: goto $r7 = <com.google.javascript.rhino.Token: com.google.javascript.rhino.Token ASSIGN_SUB>;     case 55: goto $r6 = <com.google.javascript.rhino.Token: com.google.javascript.rhino.Token ASSIGN_MUL>;     case 56: goto $r5 = <com.google.javascript.rhino.Token: com.google.javascript.rhino.Token ASSIGN_DIV>;     case 57: goto $r4 = <com.google.javascript.rhino.Token: com.google.javascript.rhino.Token ASSIGN_MOD>;     case 58: goto $r3 = <com.google.javascript.rhino.Token: com.google.javascript.rhino.Token OR>;     case 59: goto $r2 = <com.google.javascript.rhino.Token: com.google.javascript.rhino.Token AND>;     default: goto $r44 = new java.lang.IllegalStateException; } 
(assert (and (= var3048 51) (and (not (= var3048 50)) (and (not (= var3048 49)) (and (not (= var3048 48)) (and (not (= var3048 47)) (and (not (= var3048 46)) (and (not (= var3048 45)) (and (not (= var3048 44)) (and (not (= var3048 43)) (and (not (= var3048 42)) (and (not (= var3048 41)) (and (not (= var3048 40)) (and (not (= var3048 39)) (and (not (= var3048 38)) (and (not (= var3048 37)) (and (not (= var3048 36)) (and (not (= var3048 35)) (and (not (= var3048 34)) (and (not (= var3048 33)) (and (not (= var3048 32)) (and (not (= var3048 31)) (and (not (= var3048 30)) (and (not (= var3048 29)) (and (not (= var3048 28)) (and (not (= var3048 27)) (and (not (= var3048 26)) (and (not (= var3048 25)) (and (not (= var3048 24)) (and (not (= var3048 23)) (and (not (= var3048 22)) (and (not (= var3048 21)) (and (not (= var3048 20)) (and (not (= var3048 19)) (and (not (= var3048 18)) (and (not (= var3048 17)) (and (not (= var3048 16)) (and (not (= var3048 15)) (and (not (= var3048 14)) (and (not (= var3048 13)) (and (not (= var3048 12)) (and (not (= var3048 11)) (and (not (= var3048 10)) (and (not (= var3048 9)) (and (not (= var3048 8)) (and (not (= var3048 7)) (and (not (= var3048 6)) (and (not (= var3048 5)) (and (not (= var3048 4)) (and (not (= var3048 3)) true)))))))))))))))))))))))))))))))))))))))))))))))))) ; Intersect: Cond: $i1 == 51  and Intersect: Negate: Cond: $i1 == 50   and Intersect: Negate: Cond: $i1 == 49   and Intersect: Negate: Cond: $i1 == 48   and Intersect: Negate: Cond: $i1 == 47   and Intersect: Negate: Cond: $i1 == 46   and Intersect: Negate: Cond: $i1 == 45   and Intersect: Negate: Cond: $i1 == 44   and Intersect: Negate: Cond: $i1 == 43   and Intersect: Negate: Cond: $i1 == 42   and Intersect: Negate: Cond: $i1 == 41   and Intersect: Negate: Cond: $i1 == 40   and Intersect: Negate: Cond: $i1 == 39   and Intersect: Negate: Cond: $i1 == 38   and Intersect: Negate: Cond: $i1 == 37   and Intersect: Negate: Cond: $i1 == 36   and Intersect: Negate: Cond: $i1 == 35   and Intersect: Negate: Cond: $i1 == 34   and Intersect: Negate: Cond: $i1 == 33   and Intersect: Negate: Cond: $i1 == 32   and Intersect: Negate: Cond: $i1 == 31   and Intersect: Negate: Cond: $i1 == 30   and Intersect: Negate: Cond: $i1 == 29   and Intersect: Negate: Cond: $i1 == 28   and Intersect: Negate: Cond: $i1 == 27   and Intersect: Negate: Cond: $i1 == 26   and Intersect: Negate: Cond: $i1 == 25   and Intersect: Negate: Cond: $i1 == 24   and Intersect: Negate: Cond: $i1 == 23   and Intersect: Negate: Cond: $i1 == 22   and Intersect: Negate: Cond: $i1 == 21   and Intersect: Negate: Cond: $i1 == 20   and Intersect: Negate: Cond: $i1 == 19   and Intersect: Negate: Cond: $i1 == 18   and Intersect: Negate: Cond: $i1 == 17   and Intersect: Negate: Cond: $i1 == 16   and Intersect: Negate: Cond: $i1 == 15   and Intersect: Negate: Cond: $i1 == 14   and Intersect: Negate: Cond: $i1 == 13   and Intersect: Negate: Cond: $i1 == 12   and Intersect: Negate: Cond: $i1 == 11   and Intersect: Negate: Cond: $i1 == 10   and Intersect: Negate: Cond: $i1 == 9   and Intersect: Negate: Cond: $i1 == 8   and Intersect: Negate: Cond: $i1 == 7   and Intersect: Negate: Cond: $i1 == 6   and Intersect: Negate: Cond: $i1 == 5   and Intersect: Negate: Cond: $i1 == 4   and Intersect: Negate: Cond: $i1 == 3   and Non Conditional                                                 
(define-const var649 var3508 var3508-ASSIGN_RSH) ; Statement: $r10 = <com.google.javascript.rhino.Token: com.google.javascript.rhino.Token ASSIGN_RSH> 
 ; Statement: return $r10 
(check-sat)
(get-model)
(get-unsat-core)
; {ordinal/-291641772=([java.lang.Enum], int), cast-from-var3432-to-var2692=([com.google.javascript.jscomp.parsing.parser.TokenType], java.lang.Enum)}
; {var3432=com.google.javascript.jscomp.parsing.parser.TokenType, var2545=r0, var54=com.google.javascript.jscomp.parsing.IRFactory$1, var1123=$r1, var2692=java.lang.Enum, var3616=$i0, var3048=$i1, var3508=com.google.javascript.rhino.Token, var649=$r10}
; {com.google.javascript.jscomp.parsing.parser.TokenType=var3432, r0=var2545, com.google.javascript.jscomp.parsing.IRFactory$1=var54, $r1=var1123, java.lang.Enum=var2692, $i0=var3616, $i1=var3048, com.google.javascript.rhino.Token=var3508, $r10=var649}
;seq 
;cnt {}
;stmts r0 := @parameter0: com.google.javascript.jscomp.parsing.parser.TokenType;	$r1 = <com.google.javascript.jscomp.parsing.IRFactory$1: int[] $SwitchMap$com$google$javascript$jscomp$parsing$parser$TokenType>;	$i0 = virtualinvoke r0.<com.google.javascript.jscomp.parsing.parser.TokenType: int ordinal()>();	$i1 = $r1[$i0];	tableswitch($i1) {     case 3: goto $r43 = <com.google.javascript.rhino.Token: com.google.javascript.rhino.Token EXPONENT>;     case 4: goto $r42 = <com.google.javascript.rhino.Token: com.google.javascript.rhino.Token ASSIGN_EXPONENT>;     case 5: goto $r41 = <com.google.javascript.rhino.Token: com.google.javascript.rhino.Token COALESCE>;     case 6: goto $r40 = <com.google.javascript.rhino.Token: com.google.javascript.rhino.Token ASSIGN_COALESCE>;     case 7: goto $r39 = <com.google.javascript.rhino.Token: com.google.javascript.rhino.Token ASSIGN_OR>;     case 8: goto $r38 = <com.google.javascript.rhino.Token: com.google.javascript.rhino.Token ASSIGN_AND>;     case 9: goto $r44 = new java.lang.IllegalStateException;     case 10: goto $r44 = new java.lang.IllegalStateException;     case 11: goto $r44 = new java.lang.IllegalStateException;     case 12: goto $r44 = new java.lang.IllegalStateException;     case 13: goto $r44 = new java.lang.IllegalStateException;     case 14: goto $r44 = new java.lang.IllegalStateException;     case 15: goto $r44 = new java.lang.IllegalStateException;     case 16: goto $r44 = new java.lang.IllegalStateException;     case 17: goto $r44 = new java.lang.IllegalStateException;     case 18: goto $r44 = new java.lang.IllegalStateException;     case 19: goto $r44 = new java.lang.IllegalStateException;     case 20: goto $r44 = new java.lang.IllegalStateException;     case 21: goto $r37 = <com.google.javascript.rhino.Token: com.google.javascript.rhino.Token ADD>;     case 22: goto $r36 = <com.google.javascript.rhino.Token: com.google.javascript.rhino.Token SUB>;     case 23: goto $r44 = new java.lang.IllegalStateException;     case 24: goto $r44 = new java.lang.IllegalStateException;     case 25: goto $r44 = new java.lang.IllegalStateException;     case 26: goto $r35 = <com.google.javascript.rhino.Token: com.google.javascript.rhino.Token BITOR>;     case 27: goto $r34 = <com.google.javascript.rhino.Token: com.google.javascript.rhino.Token BITXOR>;     case 28: goto $r33 = <com.google.javascript.rhino.Token: com.google.javascript.rhino.Token BITAND>;     case 29: goto $r32 = <com.google.javascript.rhino.Token: com.google.javascript.rhino.Token EQ>;     case 30: goto $r31 = <com.google.javascript.rhino.Token: com.google.javascript.rhino.Token NE>;     case 31: goto $r30 = <com.google.javascript.rhino.Token: com.google.javascript.rhino.Token LT>;     case 32: goto $r29 = <com.google.javascript.rhino.Token: com.google.javascript.rhino.Token LE>;     case 33: goto $r28 = <com.google.javascript.rhino.Token: com.google.javascript.rhino.Token GT>;     case 34: goto $r27 = <com.google.javascript.rhino.Token: com.google.javascript.rhino.Token GE>;     case 35: goto $r26 = <com.google.javascript.rhino.Token: com.google.javascript.rhino.Token LSH>;     case 36: goto $r25 = <com.google.javascript.rhino.Token: com.google.javascript.rhino.Token RSH>;     case 37: goto $r24 = <com.google.javascript.rhino.Token: com.google.javascript.rhino.Token URSH>;     case 38: goto $r23 = <com.google.javascript.rhino.Token: com.google.javascript.rhino.Token MUL>;     case 39: goto $r22 = <com.google.javascript.rhino.Token: com.google.javascript.rhino.Token DIV>;     case 40: goto $r21 = <com.google.javascript.rhino.Token: com.google.javascript.rhino.Token MOD>;     case 41: goto $r20 = <com.google.javascript.rhino.Token: com.google.javascript.rhino.Token SHEQ>;     case 42: goto $r19 = <com.google.javascript.rhino.Token: com.google.javascript.rhino.Token SHNE>;     case 43: goto $r18 = <com.google.javascript.rhino.Token: com.google.javascript.rhino.Token IN>;     case 44: goto $r17 = <com.google.javascript.rhino.Token: com.google.javascript.rhino.Token INSTANCEOF>;     case 45: goto $r16 = <com.google.javascript.rhino.Token: com.google.javascript.rhino.Token COMMA>;     case 46: goto $r15 = <com.google.javascript.rhino.Token: com.google.javascript.rhino.Token ASSIGN>;     case 47: goto $r14 = <com.google.javascript.rhino.Token: com.google.javascript.rhino.Token ASSIGN_BITOR>;     case 48: goto $r13 = <com.google.javascript.rhino.Token: com.google.javascript.rhino.Token ASSIGN_BITXOR>;     case 49: goto $r12 = <com.google.javascript.rhino.Token: com.google.javascript.rhino.Token ASSIGN_BITAND>;     case 50: goto $r11 = <com.google.javascript.rhino.Token: com.google.javascript.rhino.Token ASSIGN_LSH>;     case 51: goto $r10 = <com.google.javascript.rhino.Token: com.google.javascript.rhino.Token ASSIGN_RSH>;     case 52: goto $r9 = <com.google.javascript.rhino.Token: com.google.javascript.rhino.Token ASSIGN_URSH>;     case 53: goto $r8 = <com.google.javascript.rhino.Token: com.google.javascript.rhino.Token ASSIGN_ADD>;     case 54: goto $r7 = <com.google.javascript.rhino.Token: com.google.javascript.rhino.Token ASSIGN_SUB>;     case 55: goto $r6 = <com.google.javascript.rhino.Token: com.google.javascript.rhino.Token ASSIGN_MUL>;     case 56: goto $r5 = <com.google.javascript.rhino.Token: com.google.javascript.rhino.Token ASSIGN_DIV>;     case 57: goto $r4 = <com.google.javascript.rhino.Token: com.google.javascript.rhino.Token ASSIGN_MOD>;     case 58: goto $r3 = <com.google.javascript.rhino.Token: com.google.javascript.rhino.Token OR>;     case 59: goto $r2 = <com.google.javascript.rhino.Token: com.google.javascript.rhino.Token AND>;     default: goto $r44 = new java.lang.IllegalStateException; };	$r10 = <com.google.javascript.rhino.Token: com.google.javascript.rhino.Token ASSIGN_RSH>;	return $r10
;block_num 2